sat
(:SPACER-cex-depth                 3
 :SPACER-inductive-gen             2
 :SPACER-inductive-gen-weaken-fail 2
 :SPACER-max-depth                 3
 :SPACER-max-query-lvl             3
 :SPACER-num-active-lemmas         3
 :SPACER-num-ctp-blocked           1
 :SPACER-num-is_invariant          4
 :SPACER-num-lemmas                5
 :SPACER-num-pobs                  3
 :SPACER-num-queries               4
 :SPACER-num-reach-queries         3
 :SPACER-num-reuse-reach-facts     1
 :added-eqs                        206
 :arith-assert-diseq               26
 :arith-assert-lower               208
 :arith-assert-upper               150
 :arith-bound-prop                 36
 :arith-conflicts                  8
 :arith-eq-adapter                 64
 :arith-fixed-eqs                  40
 :arith-num-rows                   24
 :arith-offset-eqs                 4
 :arith-pivots                     66
 :arith-row-summations             98
 :arith-tableau-max-columns        58
 :arith-tableau-max-rows           24
 :conflicts                        40
 :decisions                        176
 :del-clause                       74
 :final-checks                     20
 :iuc_solver.num_proxies           7
 :max-memory                       30.67
 :memory                           30.25
 :mk-bool-var                      436
 :mk-clause                        418
 :num-allocs                       5017879
 :num-checks                       42
 :pool_solver.checks               21
 :pool_solver.checks.sat           10
 :propagations                     680
 :rlimit-count                     8147
 :time                             0.02
 :time.pool_solver.smt.total       0.00
 :time.pool_solver.smt.total.sat   0.00
 :time.spacer.init_rules           0.00
 :time.spacer.solve                0.01
 :time.spacer.solve.propagate      0.00
 :time.spacer.solve.reach          0.01
 :time.spacer.solve.reach.cluster  0.00
 :time.spacer.solve.reach.is-reach 0.00)
(:max-memory   30.67
 :memory       30.25
 :num-allocs   5017879
 :rlimit-count 8147
 :time         0.02
 :total-time   0.04)
